Route #1: 1 92 28 1
Route #2 1 98 62 101 22 1
Route #3 1 24 20 12 51 1
Route #4 1 80 86 31 1
Route #5 1 6 13 59 1
Route #6 1 81 18 1
Route #7 1 35 65 4 97 95 1
Route #8 1 41 57 9 1
Route #9 1 45 15 78 89 60 1
Route #10 1 58 73 83 43 1
Route #11 1 68 29 64 1
Route #12 1 79 66 11 26 1
Route #13 1 14 8 3 50 7 1
Route #14 1 46 44 30 37 38 1
Route #15 1 61 88 49 48 27 1
Route #16 1 39 90 99 53 1
Route #17 1 72 63 100 1
Route #18 1 82 52 84 1
Route #19 1 94 76 1
Route #20 1 34 54 74 96 1
Route #21 1 33 32 25 47 1
Route #22 1 36 21 42 1
Route #23 1 91 56 10 16 1
Route #24 1 55 93 85 1
Route #25 1 77 17 70 75 1
Route #26 1 87 69 67 1
Route #27 1 23 71 2 1
Route #28 1 19 5 40 1
Cost: 29635